NAME: kroB100.pc.opt.tour
COMMENT: Found by pc_tsp [Arno Formella]
COMMENT: Length 22139.1 (unrounded)
TYPE: TOUR
DIMENSION: 100
TOUR_SECTION
23
22
27
28
26
19
20
16
1
5
3
6
9
12
7
4
2
11
8
14
10
13
18
24
25
30
33
35
36
41
39
42
43
44
48
58
57
59
68
74
83
81
71
70
66
64
61
62
63
49
47
54
50
55
56
67
69
73
76
79
87
92
90
93
100
97
99
96
98
95
89
94
91
88
86
85
82
84
80
78
72
77
75
65
60
53
51
52
46
45
38
40
37
34
31
32
29
21
15
17
-1
EOF
